NAME: concorde91
TYPE: TSP
DIMENSION: 15 
EDGE_WEIGHT_TYPE: EUC_2D
NODE_COORD_SECTION
1 47 57
2 41 8
3 34 38
4 66 100
5 88 9
6 8 81
7 33 8
8 94 88
9 92 99
10 69 61
11 38 69
12 0 49
13 72 27
14 48 0
15 0 67
